Linux optc-04-03 4.15.0-88-generic #88-Ubuntu SMP Tue Feb 11 20:11:34 UTC 2020 x86_64 x86_64 x86_64 GNU/Linux

top - 05:10:46 up 2 days, 15:46,  0 users,  load average: 0,68, 0,89, 0,96
Tasks: 468 gesamt,   1 laufend, 235 schlafend,   0 gestoppt,   0 Zombie
%CPU(s): 15,0 be,  4,2 sy,  0,0 ni, 80,7 un,  0,0 wa,  0,0 hi,  0,0 si,  0,0 st
KiB Spch : 65916192 gesamt, 62542284 frei,   718992 belegt,  2654916 Puff/Cache
KiB Swap:  8388604 gesamt,  8388604 frei,        0 belegt. 64620528 verfü Spch 

  PID USER      PR  NI    VIRT    RES    SHR S  %CPU %MEM     ZEIT+ BEFEHL
29400 bzfhende  20   0   52808   4312   3372 R   8,0  0,0   0:00.03 top
    1 root      20   0  233688   9372   6836 S   0,0  0,0   0:17.40 systemd
    2 root      20   0       0      0      0 S   0,0  0,0   0:00.27 kthreadd
    4 root       0 -20       0      0      0 I   0,0  0,0   0:00.00 kworker/0:+
    5 root      20   0       0      0      0 I   0,0  0,0   0:43.86 kworker/u9+
    7 root       0 -20       0      0      0 I   0,0  0,0   0:00.00 mm_percpu_+
    8 root      20   0       0      0      0 S   0,0  0,0   0:00.24 ksoftirqd/0
    9 root      20   0       0      0      0 I   0,0  0,0   0:44.19 rcu_sched

hard time limit: 00-04:10:00
hard mem limit: 38600

SLURM jobID: 6405080

@01 /nfs/OPTI/bzfhende/instances//./miplib2010_opm2/instances/opm2-z11-s4.mps.gz ===========
-----------------------------
So 8. Mär 05:10:46 CET 2020
-----------------------------
@03 1583640646
@05 7200
SCIP version 7.0.0 [precision: 8 byte] [memory: block] [mode: optimized] [LP solver: CPLEX 12.10.0.0] [GitHash: 297532de76]
Copyright (C) 2002-2020 Konrad-Zuse-Zentrum fuer Informationstechnik Berlin (ZIB)

External codes: 
  Readline 7.0         GNU library for command line editing (gnu.org/s/readline)
  CPLEX 12.10.0.0      Linear Programming Solver developed by IBM (www.cplex.com)
  CppAD 20180000.0     Algorithmic Differentiation of C++ algorithms developed by B. Bell (www.coin-or.org/CppAD)
  ZLIB 1.2.11          General purpose compression library by J. Gailly and M. Adler (zlib.net)
  GMP 6.1.2            GNU Multiple Precision Arithmetic Library developed by T. Granlund (gmplib.org)
  bliss 0.73p          Computing Graph Automorphism Groups by T. Junttila and P. Kaski (http://www.tcs.hut.fi/Software/bliss/)

user parameter file <scip.set> not found - using default parameters

SCIP> 
SCIP> set load /nfs/OPTI/bzfhende/scip-opti/check/../settings/periodic_report.sett
loaded parameter file </nfs/OPTI/bzfhende/scip-opti/check/../settings/periodic_report.set>
SCIP> set limits time 7200
limits/time = 7200
SCIP> set limits nodes 2100000000
limits/nodes = 2100000000
SCIP> set limits memory 35000
limits/memory = 35000
SCIP> set lp advanced threads 1
lp/threads = 1
SCIP> set timing clocktype 1
timing/clocktype = 1
SCIP> set display freq 10000
display/freq = 10000
SCIP> set memory savefac 1.0
memory/savefac = 1
SCIP> set save /nfs/OPTI/bzfhende/scip-opti/check/treesize.prediction.opm2/bzfhennde.instancegroups_opm2.61_opm2-z11-s4.scip.M620v2.periodic_report.set
saved parameter file </nfs/OPTI/bzfhende/scip-opti/check/treesize.prediction.opm2/bzfhende.instancegroups_opm2.61_opm2-z11-s4.scip.M620v2.periodic_report.set>
SCIP> read /nfs/OPTI/bzfhende/instances//./miplib2010_opm2/instances/opm2-z11-s4..mps.gz

read problem </nfs/OPTI/bzfhende/instances//./miplib2010_opm2/instances/opm2-z11-s4.mps.gz>
============

original problem has 8019 variables (8019 bin, 0 int, 0 impl, 0 cont) and 223082 constraints
SCIP> display parameters

number of parameters = 2603
non-default parameter settings:
display/freq = 10000
limits/time = 7200
limits/nodes = 2100000000
limits/memory = 35000
lp/threads = 1
memory/savefac = 1
timing/clocktype = 1
estimation/restarts/restartpolicy = n
estimation/restarts/restartlimit = 0
estimation/reportfreq = 100
estimation/treeprofile/enabled = TRUE

SCIP> optimize

feasible solution found by trivial heuristic after 0.2 seconds, objective value 0.000000e+00
presolving:
(round 1, fast)       336 del vars, 16176 del conss, 0 add conss, 0 chg bounds, 0 chg sides, 0 chg coeffs, 0 upgd conss, 0 impls, 206874 clqs
(round 2, fast)       340 del vars, 16420 del conss, 0 add conss, 0 chg bounds, 0 chg sides, 0 chg coeffs, 0 upgd conss, 0 impls, 206634 clqs
(round 3, exhaustive) 340 del vars, 16440 del conss, 0 add conss, 0 chg bounds, 0 chg sides, 0 chg coeffs, 206642 upgd conss, 0 impls, 206634 clqs
(round 4, fast)       352 del vars, 16733 del conss, 0 add conss, 0 chg bounds, 0 chg sides, 0 chg coeffs, 206642 upgd conss, 0 impls, 206046 clqs
(round 5, fast)       353 del vars, 17077 del conss, 0 add conss, 0 chg bounds, 0 chg sides, 0 chg coeffs, 206642 upgd conss, 0 impls, 205997 clqs
   (35.8s) probing: 1000/7666 (13.0%) - 0 fixings, 0 aggregations, 264497 implications, 0 bound changes
   (35.9s) probing: 1001/7666 (13.1%) - 0 fixings, 0 aggregations, 264775 implications, 0 bound changes
   (35.9s) probing aborted: 1000/1000 successive useless probings
   (39.1s) symmetry computation started: requiring (bin +, int +, cont +), (fixed: bin -, int -, cont -)
   (39.4s) no symmetry present
presolving (6 rounds: 6 fast, 2 medium, 2 exhaustive):
 353 deleted vars, 17077 deleted constraints, 0 added constraints, 0 tightened bounds, 0 added holes, 0 changed sides, 0 changed coefficients
 0 implications, 470772 cliques
presolved problem has 7666 variables (7666 bin, 0 int, 0 impl, 0 cont) and 206005 constraints
      8 constraints of type <knapsack>
 205997 constraints of type <setppc>
transformed objective value is always integral (scale: 1)
Presolving Time: 39.25
transformed 1/1 original solutions to the transformed problem space

 time | node  | left  |LP iter|LP it/n|mem/heur|mdpt |vars |cons |rows |cuts |sepa|confs|strbr|  dualbound   | primalbound  |  gap   | compl. 
p40.7s|     1 |     0 |     0 |     - | vbounds|   0 |7666 | 206k| 206k|   0 |  0 |  11 |   0 |-6.574330e+05 |-2.615900e+04 |2413.22%| unknown
 84.6s|     1 |     0 | 31405 |     - |  1442M |   0 |7666 | 206k| 206k|   0 |  0 |  21 |   0 |-6.573220e+04 |-2.615900e+04 | 151.28%| unknown
r86.5s|     1 |     0 | 31405 |     - |shifting|   0 |7666 | 206k| 206k|   0 |  0 |  22 |   0 |-6.573220e+04 |-2.992800e+04 | 119.63%| unknown
i86.5s|     1 |     0 | 31405 |     - |  oneopt|   0 |7666 | 206k| 206k|   0 |  0 |  22 |   0 |-6.573220e+04 |-3.027400e+04 | 117.12%| unknown
d 689s|     1 |     0 | 87049 |     - |farkasdi|   0 |7666 | 206k| 206k|   0 |  2 |  22 |   0 |-6.573220e+04 |-4.107700e+04 |  60.02%| unknown
 1302s|     1 |     0 |122499 |     - |  1511M |   0 |7666 | 206k| 206k|   0 |  2 |  52 |   0 |-6.573220e+04 |-4.107700e+04 |  60.02%| unknown
 1533s|     1 |     2 |122499 |     - |  1519M |   0 |7666 | 206k| 206k|   0 |  4 |  52 |  20 |-6.456865e+04 |-4.107700e+04 |  57.19%| unknown
d2983s|    14 |    15 |150758 |9181.0 |pscostdi|  12 |7666 | 206k| 206k|   0 |  1 |  52 | 170 |-6.247166e+04 |-4.190000e+04 |  49.10%| unknown
i2983s|    15 |    14 |150758 |8525.2 |  oneopt|  12 |7666 | 206k| 206k|   0 |  0 |  52 | 170 |-6.247166e+04 |-4.232100e+04 |  47.61%| unknown

SCIP Status        : solving was interrupted [time limit reached]
Solving Time (sec) : 7200.06
Solving Nodes      : 151
Primal Bound       : -4.23210000000000e+04 (8 solutions)
Dual Bound         : -5.99807850414956e+04
Gap                : 41.73 %

SCIP> display statistics

SCIP Status        : solving was interrupted [time limit reached]
Total Time         :    7200.80
  solving          :    7200.06
  presolving       :      39.25 (included in solving)
  reading          :       0.74
  copying          :       0.56 (2 #copies) (minimal 0.27, maximal 0.29, average 0.28)
Original Problem   :
  Problem name     : opm2-z11-s4
  Variables        : 8019 (8019 binary, 0 integer, 0 implicit integer, 0 continuous)
  Constraints      : 223082 initial, 223082 maximal
  Objective        : minimize, 7967 non-zeros (abs.min = 1, abs.max = 525)
Presolved Problem  :
  Problem name     : t_opm2-z11-s4
  Variables        : 7666 (7666 binary, 0 integer, 0 implicit integer, 0 continuous)
  Constraints      : 206005 initial, 206086 maximal
  Objective        : minimize, 7616 non-zeros (abs.min = 1, abs.max = 525)
  Nonzeros         : 473310 constraint, 941544 clique table
Presolvers         :   ExecTime  SetupTime  Calls  FixedVars   AggrVars   ChgTypes  ChgBounds   AddHoles    DelCons    AddCons   ChgSides   ChgCoefs
  boundshift       :       0.00       0.00      0          0          0          0          0          0          0          0          0          0
  convertinttobin  :       0.00       0.00      0          0          0          0          0          0          0          0          0          0
  domcol           :       0.12       0.00      1          0          0          0          0          0          0          0          0          0
  dualagg          :       0.00       0.00      0          0          0          0          0          0          0          0          0          0
  dualcomp         :       0.00       0.00      0          0          0          0          0          0          0          0          0          0
  dualinfer        :       0.00       0.00      0          0          0          0          0          0          0          0          0          0
  dualsparsify     :       3.23       0.00      1          0          0          0          0          0          0          0          0          0
  gateextraction   :       0.00       0.00      0          0          0          0          0          0          0          0          0          0
  implics          :       0.00       0.00      2          0          0          0          0          0          0          0          0          0
  inttobinary      :       0.00       0.00      0          0          0          0          0          0          0          0          0          0
  qpkktref         :       0.00       0.00      0          0          0          0          0          0          0          0          0          0
  redvub           :       0.00       0.00      0          0          0          0          0          0          0          0          0          0
  sparsify         :       0.15       0.00      1          0          0          0          0          0          0          0          0          0
  stuffing         :       0.00       0.00      0          0          0          0          0          0          0          0          0          0
  trivial          :       0.00       0.00      6          0          0          0          0          0          0          0          0          0
  tworowbnd        :       0.13       0.00      1          0          0          0          0          0          0          0          0          0
  dualfix          :       0.01       0.00      6        335          0          0          0          0          0          0          0          0
  genvbounds       :       0.00       0.00      0          0          0          0          0          0          0          0          0          0
  probing          :      30.82       0.00      1          0          0          0          0          0          0          0          0          0
  pseudoobj        :       0.00       0.00      3          0          0          0          0          0          0          0          0          0
  symmetry         :       0.28       0.00      1          0          0          0          0          0          0          0          0          0
  vbounds          :       0.03       0.00      1          0          0          0          0          0          0          0          0          0
  knapsack         :       1.73       0.00      5          0          0          0          0          0          0          0          0          0
  setppc           :       0.64       0.01      5         12          0          0          0          0        637          0          0          0
  linear           :       1.89       0.06      4          0          6          0          0          0      16440          0          0          0
  logicor          :       0.00       0.00      0          0          0          0          0          0          0          0          0          0
  benders          :       0.00       0.00      0          0          0          0          0          0          0          0          0          0
  components       :       0.06       0.00      1          0          0          0          0          0          0          0          0          0
  root node        :          -          -      -          0          -          -          0          -          -          -          -          -
Constraints        :     Number  MaxNumber  #Separate #Propagate    #EnfoLP    #EnfoRelax  #EnfoPS    #Check   #ResProp    Cutoffs    DomReds       Cuts    Applied      Conss   Children
  benderslp        :          0          0          0          0        105          0          0         16          0          0          0          0          0          0          0
  integral         :          0          0          0          0        105          0          0         16          0          0          2          0          0          2        208
  knapsack         :          8          8          2      28601          0          0          0         11          4         13          0          0          0          0          0
  setppc           :     205997     205997          2      28734          0          0          0          8      28735          4      18988          0          0          0          0
  linear           :          0+         2          0        430          0          0          0          0          0          0          0          0          0          0          0
  logicor          :          0+        79          2        307          0          0          0          0          0          2          0          0          0          0          0
  benders          :          0          0          0          0          0          0          0         10          0          0          0          0          0          0          0
  countsols        :          0          0          0          0          0          0          0         10          0          0          0          0          0          0          0
  components       :          0          0          0          0          0          0          0          0          0          0          0          0          0          0          0
Constraint Timings :  TotalTime  SetupTime   Separate  Propagate     EnfoLP     EnfoPS     EnfoRelax   Check    ResProp    SB-Prop
  benderslp        :       0.00       0.00       0.00       0.00       0.00       0.00       0.00       0.00       0.00       0.00
  integral         :    1633.70       0.00       0.00       0.00    1633.70       0.00       0.00       0.00       0.00       0.00
  knapsack         :       9.18       0.00       7.58       1.50       0.00       0.00       0.00       0.01       0.00       0.09
  setppc           :       9.43       0.01       0.11       8.38       0.00       0.00       0.00       0.05       0.03       0.85
  linear           :       0.06       0.06       0.00       0.00       0.00       0.00       0.00       0.00       0.00       0.00
  logicor          :       0.00       0.00       0.00       0.00       0.00       0.00       0.00       0.00       0.00       0.00
  benders          :       0.00       0.00       0.00       0.00       0.00       0.00       0.00       0.00       0.00       0.00
  countsols        :       0.00       0.00       0.00       0.00       0.00       0.00       0.00       0.00       0.00       0.00
  components       :       0.00       0.00       0.00       0.00       0.00       0.00       0.00       0.00       0.00       0.00
Propagators        : #Propagate   #ResProp    Cutoffs    DomReds
  dualfix          :          3          0          0          0
  genvbounds       :          0          0          0          0
  nlobbt           :          0          0          0          0
  obbt             :          0          0          0          0
  probing          :          0          0          0          0
  pseudoobj        :       1081          0          0          0
  redcost          :        143          0          0        151
  rootredcost      :          3          0          0          0
  symmetry         :          0          0          0          0
  vbounds          :      21614          0          0          0
Propagator Timings :  TotalTime  SetupTime   Presolve  Propagate    ResProp    SB-Prop
  dualfix          :       0.01       0.00       0.01       0.00       0.00       0.00
  genvbounds       :       0.03       0.00       0.00       0.03       0.00       0.00
  nlobbt           :       0.00       0.00       0.00       0.00       0.00       0.00
  obbt             :       0.00       0.00       0.00       0.00       0.00       0.00
  probing          :      30.82       0.00      30.82       0.00       0.00       0.00
  pseudoobj        :       0.15       0.00       0.00       0.15       0.00       0.00
  redcost          :       0.03       0.00       0.00       0.02       0.00       0.01
  rootredcost      :       0.04       0.00       0.00       0.04       0.00       0.00
  symmetry         :       0.30       0.00       0.28       0.01       0.00       0.01
  vbounds          :       0.07       0.00       0.03       0.03       0.00       0.01
Conflict Analysis  :       Time      Calls    Success    DomReds  Conflicts   Literals    Reconvs ReconvLits   Dualrays   Nonzeros   LP Iters   (pool size: [10000,10000])
  propagation      :       0.14         17         17          -       1279      992.7          0        0.0          -          -          -
  infeasible LP    :       0.00          0          0          -          0        0.0          0        0.0          0        0.0          0
  bound exceed. LP :       2.44         10          9          -        406      668.0          0        0.0          2      860.5        180
  strong branching :       0.00          0          0          -          0        0.0          0        0.0          -          -          0
  pseudo solution  :       0.00          0          0          -          0        0.0          0        0.0          -          -          -
  applied globally :       0.00          -          -          0        105      511.8          -          -          2          -          -
  applied locally  :          -          -          -          0          0        0.0          -          -          0          -          -
Separators         :   ExecTime  SetupTime      Calls    Cutoffs    DomReds       Cuts    Applied      Conss
  cut pool         :       0.00                     0          -          -          0          -          -    (maximal pool size: 0)
  aggregation      :      54.46       0.00          7          0          0          0          0          0
  cgmip            :       0.00       0.00          0          0          0          0          0          0
  clique           :       6.93       0.00          2          0          0          0          0          0
  closecuts        :       0.00       0.00          0          0          0          0          0          0
  cmir             :       0.00       0.00          0          0          0          0          0          0
  convexproj       :       0.00       0.00          0          0          0          0          0          0
  disjunctive      :       0.00       0.00          0          0          0          0          0          0
  eccuts           :       0.00       0.00          0          0          0          0          0          0
  flowcover        :       0.00       0.00          0          0          0          0          0          0
  gauge            :       0.00       0.00          0          0          0          0          0          0
  gomory           :     431.20       0.00          7          0          0          0          0          0
  impliedbounds    :       0.09       0.00          7          0          0          0          0          0
  intobj           :       0.00       0.00          0          0          0          0          0          0
  mcf              :       2.20       0.00          2          0          0          0          0          0
  oddcycle         :       0.00       0.00          0          0          0          0          0          0
  rapidlearning    :       0.05       0.00          0          0          0          0          0          0
  strongcg         :      41.60       0.00          2          0          0          0          0          0
  zerohalf         :      27.97       0.00          7          0          0          0          0          0
Pricers            :   ExecTime  SetupTime      Calls       Vars
  problem variables:       0.00          -          0          0
Branching Rules    :   ExecTime  SetupTime   BranchLP  BranchExt   BranchPS    Cutoffs    DomReds       Cuts      Conss   Children
  allfullstrong    :       0.00       0.00          0          0          0          0          0          0          0          0
  cloud            :       0.00       0.00          0          0          0          0          0          0          0          0
  distribution     :       0.00       0.00          0          0          0          0          0          0          0          0
  fullstrong       :       0.00       0.00          0          0          0          0          0          0          0          0
  inference        :       0.00       0.00          0          0          0          0          0          0          0          0
  leastinf         :       0.00       0.00          0          0          0          0          0          0          0          0
  lookahead        :       0.00       0.00          0          0          0          0          0          0          0          0
  mostinf          :       0.00       0.00          0          0          0          0          0          0          0          0
  multaggr         :       0.00       0.00          0          0          0          0          0          0          0          0
  nodereopt        :       0.00       0.00          0          0          0          0          0          0          0          0
  pscost           :       0.00       0.00          0          0          0          0          0          0          0          0
  random           :       0.00       0.00          0          0          0          0          0          0          0          0
  relpscost        :    1633.70       0.00        105          0          0          0          2          0          2        208
  vanillafullstrong:       0.00       0.00          0          0          0          0          0          0          0          0
Primal Heuristics  :   ExecTime  SetupTime      Calls      Found       Best
  LP solutions     :       0.00          -          -          0          0
  relax solutions  :       0.00          -          -          0          0
  pseudo solutions :       0.00          -          -          0          0
  strong branching :       0.00          -          -          0          0
  actconsdiving    :       0.00       0.00          0          0          0
  adaptivediving   :      69.27       0.00          1          0          0
  alns             :       1.62       0.00          2          0          0
  bound            :       0.00       0.00          0          0          0
  clique           :       0.28       0.00          1          0          0
  coefdiving       :       0.00       0.00          0          0          0
  completesol      :       0.00       0.00          0          0          0
  conflictdiving   :     221.54       0.00          1          0          0
  crossover        :       0.00       0.00          0          0          0
  dins             :       0.00       0.00          0          0          0
  distributiondivin:     104.32       0.00          1          0          0
  dualval          :       0.00       0.00          0          0          0
  farkasdiving     :     531.06       0.00          1          1          1
  feaspump         :     390.96       0.00          1          0          0
  fixandinfer      :       0.00       0.00          0          0          0
  fracdiving       :      94.83       0.00          1          0          0
  gins             :       0.03       0.00          0          0          0
  guideddiving     :       0.00       0.00          0          0          0
  indicator        :       0.00       0.00          0          0          0
  intdiving        :       0.00       0.00          0          0          0
  intshifting      :       0.00       0.00          0          0          0
  linesearchdiving :       0.00       0.00          0          0          0
  localbranching   :       0.00       0.00          0          0          0
  locks            :       0.23       0.00          1          0          0
  lpface           :       0.00       0.00          0          0          0
  mpec             :       0.00       0.00          0          0          0
  multistart       :       0.00       0.00          0          0          0
  mutation         :       0.00       0.00          0          0          0
  nlpdiving        :       0.00       0.00          0          0          0
  objpscostdiving  :     235.94       0.00          1          0          0
  octane           :       0.00       0.00          0          0          0
  ofins            :       0.00       0.00          0          0          0
  oneopt           :       0.08       0.00          4          2          2
  padm             :       0.00       0.00          0          0          0
  proximity        :       0.00       0.00          0          0          0
  pscostdiving     :     117.28       0.00          1          1          1
  randrounding     :       0.30       0.00          3          1          0
  rens             :       0.00       0.00          0          0          0
  reoptsols        :       0.00       0.00          0          0          0
  repair           :       0.00       0.00          0          0          0
  rins             :       0.00       0.00          0          0          0
  rootsoldiving    :       0.00       0.00          0          0          0
  rounding         :      58.68       0.00        103          0          0
  shiftandpropagate:       0.00       0.00          0          0          0
  shifting         :       5.58       0.00          8          1          1
  simplerounding   :       0.01       0.00        143          0          0
  subnlp           :       0.00       0.00          0          0          0
  trivial          :       0.02       0.00          2          1          1
  trivialnegation  :       0.00       0.00          0          0          0
  trustregion      :       0.00       0.00          0          0          0
  trysol           :       0.00       0.00          0          0          0
  twoopt           :       0.00       0.00          0          0          0
  undercover       :       0.00       0.00          0          0          0
  vbounds          :       1.64       0.00          1          1          1
  veclendiving     :      22.27       0.00          1          0          0
  zeroobj          :       0.00       0.00          0          0          0
  zirounding       :       2.58       0.00        103          0          0
  other solutions  :          -          -          -          0          -
Diving (single)    :      Calls      Nodes   LP Iters Backtracks  Conflicts   MinDepth   MaxDepth   AvgDepth  RoundSols  NLeafSols  MinSolDpt  MaxSolDpt  AvgSolDpt
  actconsdiving    :          0          -          -          -          -          -          -          -          -          -          -          -          -
  coefdiving       :          0          -          -          -          -          -          -          -          -          -          -          -          -
  conflictdiving   :          1         90      14300          2        225         89         89       89.0          0          -          -          -          -
  distributiondivin:          1       1265      12215          1         72       1269       1269     1269.0          0          -          -          -          -
  farkasdiving     :          1        533      55644          0          0        534        534      534.0          0          1        534        534      534.0
  fracdiving       :          1        486      10227          1         33        491        491      491.0          0          -          -          -          -
  guideddiving     :          0          -          -          -          -          -          -          -          -          -          -          -          -
  linesearchdiving :          0          -          -          -          -          -          -          -          -          -          -          -          -
  pscostdiving     :          1        433      12639          0          0        446        446      446.0          0          1        446        446      446.0
  veclendiving     :          1         11       2904          3         38         12         12       12.0          0          -          -          -          -
Diving (adaptive)  :      Calls      Nodes   LP Iters Backtracks  Conflicts   MinDepth   MaxDepth   AvgDepth  RoundSols  NLeafSols  MinSolDpt  MaxSolDpt  AvgSolDpt
  actconsdiving    :          0          -          -          -          -          -          -          -          -          -          -          -          -
  coefdiving       :          0          -          -          -          -          -          -          -          -          -          -          -          -
  conflictdiving   :          0          -          -          -          -          -          -          -          -          -          -          -          -
  distributiondivin:          0          -          -          -          -          -          -          -          -          -          -          -          -
  farkasdiving     :          0          -          -          -          -          -          -          -          -          -          -          -          -
  fracdiving       :          0          -          -          -          -          -          -          -          -          -          -          -          -
  guideddiving     :          0          -          -          -          -          -          -          -          -          -          -          -          -
  linesearchdiving :          0          -          -          -          -          -          -          -          -          -          -          -          -
  pscostdiving     :          1         22       2739          1         57         35         35       35.0          0          -          -          -          -
  veclendiving     :          0          -          -          -          -          -          -          -          -          -          -          -          -
Neighborhoods      :      Calls  SetupTime  SolveTime SolveNodes       Sols       Best       Exp3  EpsGreedy        UCB TgtFixRate  Opt  Inf Node Stal  Sol  Usr Othr Actv
  rens             :          0       0.00       0.00          0          0          0    0.00000   -1.00000    1.00000      0.900    0    0    0    0    0    0    0    1
  rins             :          0       0.00       0.00          0          0          0    0.00000   -1.00000    1.00000      0.900    0    0    0    0    0    0    0    1
  mutation         :          0       0.00       0.00          0          0          0    0.00000   -1.00000    1.00000      0.900    0    0    0    0    0    0    0    1
  localbranching   :          1       0.43       0.36          0          0          0    0.00000   -1.00000    1.00000      0.700    0    1    0    0    0    0    0    1
  crossover        :          0       0.00       0.00          0          0          0    0.00000   -1.00000    1.00000      0.900    0    0    0    0    0    0    0    1
  proximity        :          0       0.00       0.00          0          0          0    0.00000   -1.00000    1.00000      0.900    0    0    0    0    0    0    0    1
  zeroobjective    :          0       0.00       0.00          0          0          0    0.00000   -1.00000    1.00000      0.900    0    0    0    0    0    0    0    1
  dins             :          1       0.45       0.28          0          0          0    0.00000   -1.00000    1.00000      0.700    0    1    0    0    0    0    0    1
  trustregion      :          0       0.00       0.00          0          0          0    0.00000   -1.00000    1.00000      0.900    0    0    0    0    0    0    0    0
LP                 :       Time      Calls Iterations  Iter/call   Iter/sec  Time-0-It Calls-0-It    ItLimit
  primal LP        :       0.00          0          0       0.00          -       0.00          0
  dual LP          :    3093.44        190     140894     926.93      45.55       0.53         38
  lex dual LP      :       0.00          0          0       0.00          -
  barrier LP       :       0.00          0          0       0.00          -       0.00          0
  resolve instable :       0.00          0          0       0.00          -
  diving/probing LP:    1773.43       1024     192610     188.10     108.61
  strong branching :    1627.92        231     197421     854.64     121.27          -          -        331
    (at root node) :          -         20      19554     977.70          -
  conflict analysis:       2.23         18        180      10.00      80.72
B&B Tree           :
  number of runs   :          1
  nodes            :        151 (104 internal, 47 leaves)
  feasible leaves  :          0
  infeas. leaves   :          0
  objective leaves :         47
  nodes (total)    :        151 (104 internal, 47 leaves)
  nodes left       :         58
  max depth        :         24
  max depth (total):         24
  backtracks       :         37 (24.5%)
  early backtracks :          0 (0.0%)
  nodes exc. ref.  :          0 (0.0%)
  delayed cutoffs  :          0
  repropagations   :          0 (0 domain reductions, 0 cutoffs)
  avg switch length:       2.83
  switching time   :       0.23
Estim. Tree Size   :      75969
Estimation Tree    : 209 nodes (151 visited, 104 inner, 47 leaves, 58 open), weight: 0.0020 completed 0.0680
Estimations        :      estim      value      trend resolution     smooth
  wbe              :      46669          -          -          -          -
  tree-profile     :         -1          -          -          -          -
  gap              :       2471    0.70558    0.00025          1       2349
  tree-weight      :      75969    0.00201    0.00003          1      89074
  leaf-frequency   :        377    0.30795    0.00135          1        356
  ssg              :      23000    0.89381   -0.00008          1      21829
  open-nodes       :        935   58.00000   -0.13773          1        949
Root Node          :
  First LP value   : -6.57321976835645e+04
  First LP Iters   :      31405 (733.93 Iter/sec)
  First LP Time    :      42.79
  Final Dual Bound : -6.45686529059435e+04
  Final Root Iters :      31405
  Root LP Estimate : -2.10003530392061e+04
Solution           :
  Solutions found  :          8 (7 improvements)
  First Solution   : +0.00000000000000e+00   (in run 1, after 0 nodes, 0.21 seconds, depth 0, found by <trivial>)
  Gap First Sol.   :   infinite
  Gap Last Sol.    :      47.61 %
  Primal Bound     : -4.23210000000000e+04   (in run 1, after 15 nodes, 2983.16 seconds, depth 2, found by <oneopt>)
  Dual Bound       : -5.99807850414956e+04
  Gap              :      41.73 %
Integrals          :      Total       Avg%
  primal-dual      :  251977.38      35.00
  primal-ref       :          -          - (not evaluated)
  dual-ref         :          -          - (not evaluated)

SCIP> checksol

check best solution
solution is feasible in original problem
Violation          :    absolute    relative
  bounds           : 0.00000e+00 0.00000e+00
  integrality      : 0.00000e+00           -
  LP rows          : 0.00000e+00 0.00000e+00
  constraints      : 0.00000e+00 0.00000e+00

SCIP> write sol /local/tmp/bzfhende-tmpdir/bzfhende.instancegroups_opm2.61_opm2-zz11-s4.scip.M620v2.periodic_report.sol

written solution information to file </local/tmp/bzfhende-tmpdir/bzfhende.instancegroups_opm2.61_opm2-z11-s4.scip.M620v2.periodic_report.sol>

SCIP> quit

Read MPS: 1
MIP has 8019 vars and 223082 constraints
Read SOL: 1
Objective value computed by solver: -42321

Integrality tolerance: 1/10000
Linear tolerance: 1/10000
Objective tolerance: 1/10000

Check SOL: Integrality 1 Constraints 1 Objective 1
Maximum violations: Integrality 0 Constraints 0 Objective 0
@04 1583647857
-----------------------------
So 8. Mär 07:10:57 CET 2020
-----------------------------

=ready=
